* ENCODING=ISO-8859-1
NAME          CPLEX
ROWS
 N  obj1    
 G  c1      
 G  c2      
 G  c3      
 G  c4      
 G  c5      
 G  c6      
 G  c7      
 G  c8      
 G  c9      
 G  c10     
 G  c11     
 G  c12     
 G  c13     
 G  c14     
 G  c15     
 G  c16     
 G  c17     
 G  c18     
 G  c19     
 G  c20     
 G  c21     
 G  c22     
 G  c23     
 G  c24     
 G  c25     
 G  c26     
 G  c27     
 G  c28     
 G  c29     
 G  c30     
COLUMNS
    MARK0000  'MARKER'                 'INTORG'
    x1        obj1                            1
    x1        c8                            241
    x1        c9                            665
    x1        c15                           922
    x1        c19                           224
    x1        c28                           493
    x1        c30                           141
    x2        obj1                            1
    x2        c1                            808
    x2        c16                           290
    x2        c28                           975
    x2        c30                           836
    x3        obj1                            1
    x3        c24                           347
    x3        c25                           601
    x4        obj1                            1
    x4        c18                           647
    x4        c29                           531
    x5        obj1                            1
    x5        c5                            187
    x5        c17                           648
    x6        obj1                            1
    x6        c11                           603
    x6        c14                           256
    x7        obj1                            1
    x7        c2                            486
    x7        c16                           598
    x7        c25                           790
    x8        obj1                            1
    x8        c25                           348
    x8        c30                           137
    x9        obj1                            1
    x9        c23                           591
    x10       obj1                            1
    x10       c4                            921
    x10       c18                           496
    x10       c25                           180
    x11       obj1                            1
    x11       c16                           584
    x11       c25                           363
    x11       c26                           103
    x12       obj1                            1
    x12       c7                            965
    x12       c9                            139
    x12       c16                           265
    x13       obj1                            1
    x13       c2                            426
    x13       c9                            130
    x13       c17                           288
    x13       c20                           142
    x13       c21                           127
    x13       c28                           650
    x14       obj1                            1
    x14       c6                            700
    x14       c10                           991
    x14       c22                           393
    x14       c28                           905
    x15       obj1                            1
    x15       c1                            185
    x15       c22                           187
    x16       obj1                            1
    x16       c22                           451
    x16       c25                           756
    x16       c30                           658
    x17       obj1                            1
    x17       c27                           451
    x18       obj1                            1
    x18       c5                            573
    x18       c22                           775
    x19       obj1                            1
    x19       c5                            592
    x19       c20                           494
    x20       obj1                            1
    x20       c19                           372
    x21       obj1                            1
    x21       c7                            110
    x21       c8                            543
    x22       obj1                            1
    x22       c9                            299
    x22       c18                           274
    x23       obj1                            1
    x23       c16                           862
    x23       c26                           783
    x23       c27                           850
    x23       c28                           198
    x24       obj1                            1
    x24       c4                            249
    x24       c12                           180
    x24       c16                           834
    x24       c21                           997
    x24       c23                           364
    x24       c25                           183
    x25       obj1                            1
    x25       c10                           998
    x25       c14                           776
    x25       c17                           613
    x25       c20                           967
    x26       obj1                            1
    x26       c8                            993
    x26       c10                           893
    x26       c17                           457
    x26       c19                           985
    x27       obj1                            1
    x27       c13                           782
    x27       c18                           399
    x27       c26                           918
    x27       c28                           923
    x28       obj1                            1
    x28       c3                            575
    x28       c5                            658
    x28       c13                           748
    x28       c27                           500
    x29       obj1                            1
    x29       c15                           112
    x30       obj1                            1
    x30       c3                            925
    x30       c5                            542
    x30       c19                           484
    x31       obj1                            1
    x31       c13                           218
    x31       c19                           643
    x31       c23                           688
    x32       obj1                            1
    x32       c12                           294
    x32       c17                           915
    x32       c24                           326
    x32       c26                           535
    x33       obj1                            1
    x33       c9                            543
    x33       c19                           249
    x33       c28                           120
    x34       obj1                            1
    x34       c15                           289
    x34       c16                           666
    x34       c18                           445
    x35       obj1                            1
    x35       c4                            770
    x35       c13                           671
    x36       obj1                            1
    x36       c6                            656
    x37       obj1                            1
    x37       c3                            741
    x37       c6                            755
    x37       c30                           422
    x38       obj1                            1
    x38       c10                           968
    x38       c29                           917
    x39       obj1                            1
    x39       c8                            109
    x39       c13                           669
    x39       c26                           206
    x40       obj1                            1
    x40       c2                            878
    x40       c5                            712
    x40       c18                           334
    x40       c20                           122
    x40       c28                           237
    x40       c30                           386
    x41       obj1                            1
    x42       obj1                            1
    x42       c20                           874
    x42       c22                           903
    x43       obj1                            1
    x43       c18                           869
    x43       c22                           474
    x44       obj1                            1
    x44       c4                            587
    x44       c7                            380
    x44       c8                            948
    x44       c11                           836
    x44       c14                           559
    x44       c26                           727
    x45       obj1                            1
    x45       c13                           196
    x45       c16                           980
    x46       obj1                            1
    x46       c3                            289
    x46       c26                           810
    x46       c30                           572
    x47       obj1                            1
    x47       c14                           163
    x47       c17                           176
    x47       c25                           657
    x48       obj1                            1
    x48       c4                            785
    x48       c6                            551
    x48       c14                           338
    x49       obj1                            1
    x49       c5                            775
    x49       c20                           578
    x49       c22                           927
    x49       c24                           991
    x49       c28                           786
    x50       obj1                            1
    x50       c10                           108
    x50       c18                           722
    x50       c20                           475
    x51       obj1                            1
    x51       c2                            233
    x51       c13                           664
    x51       c20                           729
    x51       c27                           525
    x52       obj1                            1
    x52       c5                            818
    x52       c16                           804
    x53       obj1                            1
    x53       c21                           407
    x54       obj1                            1
    x54       c1                            964
    x54       c2                            656
    x54       c4                            757
    x54       c8                            798
    x54       c11                           888
    x54       c19                           174
    x54       c22                           526
    x54       c27                           650
    x54       c29                           464
    x55       obj1                            1
    x55       c9                            285
    x55       c18                           175
    x55       c23                           768
    x55       c25                           887
    x56       obj1                            1
    x56       c6                            510
    x57       obj1                            1
    x57       c14                           857
    x57       c23                           145
    x57       c27                           387
    x58       obj1                            1
    x58       c3                            610
    x58       c5                            792
    x59       obj1                            1
    x59       c19                           773
    x59       c30                           113
    x60       obj1                            1
    x60       c4                            255
    x60       c10                           182
    x60       c12                           124
    x60       c17                           880
    x60       c22                           338
    x60       c27                           480
    MARK0001  'MARKER'                 'INTEND'
RHS
    rhs       c1                            979
    rhs       c2                           1340
    rhs       c3                           1570
    rhs       c4                           2162
    rhs       c5                           2825
    rhs       c6                           1586
    rhs       c7                            728
    rhs       c8                           1816
    rhs       c9                           1031
    rhs       c10                          2070
    rhs       c11                          1164
    rhs       c12                           299
    rhs       c13                          1974
    rhs       c14                          1475
    rhs       c15                           662
    rhs       c16                          2942
    rhs       c17                          1989
    rhs       c18                          2181
    rhs       c19                          1952
    rhs       c20                          2191
    rhs       c21                           766
    rhs       c22                          2487
    rhs       c23                          1278
    rhs       c24                           832
    rhs       c25                          2383
    rhs       c26                          2041
    rhs       c27                          1922
    rhs       c28                          2644
    rhs       c29                           956
    rhs       c30                          1633
BOUNDS
 LI bnd       x1        0
 LI bnd       x2        0
 LI bnd       x3        0
 LI bnd       x4        0
 LI bnd       x5        0
 LI bnd       x6        0
 LI bnd       x7        0
 LI bnd       x8        0
 LI bnd       x9        0
 LI bnd       x10       0
 LI bnd       x11       0
 LI bnd       x12       0
 LI bnd       x13       0
 LI bnd       x14       0
 LI bnd       x15       0
 LI bnd       x16       0
 LI bnd       x17       0
 LI bnd       x18       0
 LI bnd       x19       0
 LI bnd       x20       0
 LI bnd       x21       0
 LI bnd       x22       0
 LI bnd       x23       0
 LI bnd       x24       0
 LI bnd       x25       0
 LI bnd       x26       0
 LI bnd       x27       0
 LI bnd       x28       0
 LI bnd       x29       0
 LI bnd       x30       0
 LI bnd       x31       0
 LI bnd       x32       0
 LI bnd       x33       0
 LI bnd       x34       0
 LI bnd       x35       0
 LI bnd       x36       0
 LI bnd       x37       0
 LI bnd       x38       0
 LI bnd       x39       0
 LI bnd       x40       0
 LI bnd       x41       0
 LI bnd       x42       0
 LI bnd       x43       0
 LI bnd       x44       0
 LI bnd       x45       0
 LI bnd       x46       0
 LI bnd       x47       0
 LI bnd       x48       0
 LI bnd       x49       0
 LI bnd       x50       0
 LI bnd       x51       0
 LI bnd       x52       0
 LI bnd       x53       0
 LI bnd       x54       0
 LI bnd       x55       0
 LI bnd       x56       0
 LI bnd       x57       0
 LI bnd       x58       0
 LI bnd       x59       0
 LI bnd       x60       0
ENDATA
